c --- [ banner ] -------------------------------------------------------------
c 
c CaDiCaL SAT Solver
c Copyright (c) 2016-2025
c A. Biere, M. Fleury, N. Froleyks, K. Fazekas, F. Pollitt, T. Faller
c JKU Linz, University of Freiburg, TU Wien
c 
c Version 3.0.0 7b99c07f0bcab5824a5a3ce62c7066554017f641
c Apple clang version 21.0.0 (clang-2100.0.123.102) -Wall -Wextra -O3 -DNDEBUG -DNCLOSEFROM
c Thu Apr 23 22:35:47 PDT 2026 Darwin dada-mun-26.local 25.4.0 arm64
c 
c --- [ limit ] --------------------------------------------------------------
c 
c setting time limit to 180 seconds real time (due to '-t 180')
c 
c --- [ parsing input ] ------------------------------------------------------
c 
c reading DIMACS file from '/private/tmp/p97-ordinal-sharesSecondAtSource.cnf'
c opening file to read '/private/tmp/p97-ordinal-sharesSecondAtSource.cnf'
c found 'p cnf 58142 314475' header
c parsed 314475 clauses in 0.06 seconds process time
c 
c --- [ options ] ------------------------------------------------------------
c 
c   --compact=false                (different from default 'true')
c   --congruence=false             (different from default 'true')
c   --decompose=false              (different from default 'true')
c   --deduplicate=false            (different from default 'true')
c   --eagersubsume=false           (different from default 'true')
c   --elim=false                   (different from default 'true')
c   --factor=false                 (different from default 'true')
c   --factorunbump=false           (different from default 'true')
c   --fastelim=false               (different from default 'true')
c   --inprobing=false              (different from default 'true')
c   --inprocessing=false           (different from default 'true')
c   --preprocesslight=false        (different from default 'true')
c   --probe=false                  (different from default 'true')
c   --subsume=false                (different from default 'true')
c   --sweep=false                  (different from default 'true')
c   --ternary=false                (different from default 'true')
c   --transred=false               (different from default 'true')
c   --vivify=false                 (different from default 'true')
c 
c --- [ solving ] ------------------------------------------------------------
c 
c time measured in process time since initialization
c 
c  seconds  reduction conflicts       size tier2        variables
c         MB    restarts   redundant    glue  trail          remaining
c          level     rate       size/glu tier1  irredundant
c 
c *  0.06  0  0 0   0  0    0    0 0.0 0 0 2 6  0% 313683 57502 99%
c )  0.06  0  0 0   0  0    0    0 0.0 0 0 2 6  0% 313683 57502 99%
c {  0.06  0  0 0   0  0    0    0 0.0 0 0 2 6  0% 313683 57502 99%
c i  0.06  0  8 0   0  3    5    4 2.3 2 1 2 6  1% 313683 57500 99%
c i  0.06  0 10 0   0  3   10    7 2.3 2 1 2 6  2% 313683 57266 98%
c i  0.06  0 12 0   0  3   19   15 2.1 2 1 2 6  2% 313683 57144 98%
c i  0.06  0 59 0   0  6   69   63 1.9 2 1 2 6  6% 313683 57143 98%
c i  0.06  0 55 0   3  6   85   76 1.9 3 1 2 6  6% 313683 56959 98%
c i  0.07  0 155 0  17 31  143  128 1.4 5 4 2 6  8% 313683 56957 98%
c i  0.07  0 148 0  19 30  151  132 1.4 5 4 2 6  8% 313683 56956 98%
c -  0.08  0 140 1  51 31  300  216 1.4 6 4 2 6  9% 307834 56956 98%
c i  0.09  0 134 1  57 29  322  236 1.4 6 4 2 6  9% 307834 56955 98%
c i  0.11  0 3401 1  81 90  623  442 1.4 6 4 2 6 24% 307834 56953 98%
c -  0.16  0 2214 2 104 63  945  617 1.6 7 4 2 6 23% 307806 56951 98%
c }  0.17  0 2085 2 113 61 1001  665 1.6 7 4 2 6 23% 307806 56951 98%
c [  0.17  0  0 2 113  0 1001  665 0.0 0 0 2 6  0% 307806 56951 98%
c O  0.17  0 28 2 113 29 1002  666 1.1 15 14 2 6  6% 307806 56951 98%
c i  0.17  0 34 2 113  6 1015  676 1.4 6 4 2 6  7% 307806 56950 98%
c ]  0.23  0 58 2 113  2 1353 1004 3.0 22 7 2 6 21% 307806 56950 98%
c {  0.23  0 2085 2 113 61 1353 1004 1.6 7 4 2 6 23% 307806 56950 98%
c 
c  seconds    reduction conflicts       size tier2        variables
c         MB      restarts   redundant    glue  trail          remaining
c           level      rate       size/glu tier1  irredundant
c 
c i  0.25  0 1701 2 134 52 1594 1199 1.7 8 5 2 6 22% 307806 56944 98%
c i  0.27  0 1558 2 161 50 1705 1300 1.7 8 5 2 6 22% 307806 56931 98%
c -  0.31  0 1235 3 175 42 2087 1272 1.7 7 4 2 6 22% 307700 56931 98%
c i  0.33  0 1207 3 185 42 2128 1309 1.7 8 5 2 6 22% 307700 56930 98%
c O  0.42  0 826 3 277 33 3003 2029 1.7 8 5 2 6 21% 307700 56927 98%
c i  0.51  0 676 3 379 30 3680 2588 1.7 8 5 2 6 22% 307700 56926 98%
c -  0.56  0 660 4 401 30 3786 2140 1.7 8 5 2 6 22% 307673 56926 98%
c }  0.57  0 652 4 406 30 3836 2183 1.7 8 5 2 6 22% 307673 56926 98%
c [  0.57  0 58 4 406  2 3836 2183 3.0 22 7 2 6 21% 307673 56926 98%
c I  0.76  0 88 4 408  3 6004 4232 2.2 24 11 4 10 27% 307673 56926 98%
c i  0.76  0 88 4 408  3 6007 4234 2.2 24 11 4 10 27% 307673 56925 98%
c -  0.79  0 88 5 408  3 6074 3070 2.2 24 11 4 10 27% 307667 56925 98%
c ]  0.92  0 99 5 409  3 8218 5001 2.1 24 12 4 11 30% 307667 56925 98%
c {  0.92  0 652 5 409 30 8218 5001 1.7 8 5 2 6 22% 307667 56925 98%
c i  0.96  0 594 5 442 28 8624 5361 1.7 9 5 2 6 22% 307667 56924 98%
c -  1.01  0 552 6 463 27 8974 3989 1.7 9 5 2 6 22% 307658 56924 98%
c #  1.15  0 461 6 570 25 10007 4857 1.7 9 5 2 3 22% 307658 56924 98%
c i  1.43  0 345 6 815 21 12417 6891 1.7 9 5 2 3 22% 307658 56919 98%
c -  1.47  0 342 7 826 21 12497 4531 1.7 9 5 2 3 22% 307629 56919 98%
c }  1.65  0 305 7 986 20 13915 5720 1.7 9 5 2 3 23% 307629 56919 98%
c 
c  seconds  reductions conflicts       size   tier2         variables
c         MB    restarts    redundant     glue    trail          remaining
c          level     rate        size/glue  tier1   irredundant
c 
c [  1.65  0 99 7 986  3 13915 5720 2.1 24 12 4 11 30% 307629 56919 98%
c B  1.75  0 99 7 987  3 15009 6714 2.1 24 11 4 11 29% 307629 56919 98%
c -  1.93  0 92 8 988  3 16654 5581 2.1 25 12 4 11 29% 307629 56919 98%
c ]  2.36  0 80 8 989  2 20980 9740 2.0 29 15 4 11 27% 307629 56919 98%
c {  2.36  0 305 8 989 20 20980 9740 1.7 9 5 2 3 23% 307629 56919 98%
c B  2.36  0 304 8 995 20 21011 9764 1.7 9 5 2 3 23% 307629 56919 98%
c i  2.43  0 296 8 1059 20 21396 10104 1.7 9 5 2 3 23% 307629 56918 98%
c -  2.46  0 294 9 1067 20 21454 6354 1.7 9 5 2 3 23% 307620 56918 98%
c i  2.75  0 254 9 1302 19 23817 8425 1.8 10 5 2 3 23% 307620 56917 98%
c i  2.83  0 245 9 1371 19 24555 9058 1.8 10 5 2 3 23% 307620 56916 98%
c -  3.22  0 224 10 1654 19 26901 7938 1.8 10 6 2 3 24% 307608 56916 98%
c W  3.47  0 215 10 1741 18 28013 8885 1.8 10 6 2 3 24% 307608 56916 98%
c }  3.76  0 203 10 2016 18 29931 10608 1.8 10 6 2 3 24% 307608 56916 98%
c [  3.76  0 80 10 2016  2 29931 10608 2.0 29 15 4 11 27% 307608 56916 98%
c -  4.11  0 79 11 2018  3 33004 9615 2.0 29 15 4 11 27% 307608 56916 98%
c W  4.43  0 77 11 2020  3 36014 12419 2.0 28 14 4 11 27% 307608 56916 98%
c -  4.87  0 75 12 2022  3 39763 10826 2.0 28 14 3 10 26% 307608 56916 98%
c ]  5.08  0 72 12 2023  3 41247 12253 2.0 29 14 3 10 27% 307608 56916 98%
c {  5.08  0 203 12 2023 18 41247 12253 1.8 10 6 2 3 24% 307608 56916 98%
c i  5.31  0 194 12 2169 18 42968 13757 1.8 10 6 2 3 24% 307608 56914 98%
c 
c  seconds   reductions   conflicts        size  tier2        variables
c         MB      restarts      redundant     glue  trail          remaining
c           level       rate         size/glue tier1  irredundant
c 
c F  5.64  0 185 12 2464 18 45016 15604 1.8 10 6 2 3 24% 307608 56913 98%
c -  5.99  0 178 13 2679 18 47180 12700 1.8 10 6 2 3 25% 307595 56913 98%
c i  6.06  0 176 13 2735 18 47613 13065 1.8 10 6 2 3 25% 307595 56911 98%
c }  7.03  0 160 13 3477 17 53981 18789 1.8 10 6 2 3 25% 307595 56910 98%
c [  7.03  0 72 13 3477  3 53981 18789 2.0 29 14 3 10 27% 307595 56910 98%
c O  7.13  0 77 13 3477  3 55017 19772 2.0 28 14 3 10 27% 307595 56910 98%
c -  7.18  0 76 14 3477  3 55259 15045 2.0 28 14 3 10 27% 307582 56910 98%
c i  7.48  0 78 14 3478  3 58352 18021 2.0 30 15 3 10 29% 307582 56906 98%
c i  7.48  0 78 14 3478  3 58356 18024 2.0 30 15 3 10 29% 307582 56905 98%
c i  7.48  0 78 14 3478  3 58383 18049 2.0 30 15 3 10 29% 307582 56900 98%
c -  8.06  0 75 15 3478  2 64003 16162 2.1 32 15 3 10 29% 307515 56898 98%
c B  8.29  0 74 15 3479  2 66020 18080 2.1 32 15 3 10 29% 307515 56898 98%
c ]  9.07  0 70 15 3484  2 72111 23969 2.1 34 16 3 10 29% 307515 56898 98%
c {  9.07  0 160 15 3484 17 72111 23969 1.8 10 6 2 3 25% 307515 56898 98%
c -  9.28  0 157 16 3604 17 73413 17129 1.8 11 6 2 3 25% 307515 56898 98%
c B 10.02  0 150 16 4118 17 78022 21263 1.8 11 6 2 3 25% 307515 56898 98%
c - 10.91  0 143 17 4671 16 83495 19925 1.8 11 6 2 3 26% 307515 56898 98%
c } 12.01  0 138 17 5442 16 90437 26170 1.8 11 6 2 3 26% 307515 56898 98%
c [ 12.01  0 70 17 5442  2 90437 26170 2.1 34 16 3 10 29% 307515 56898 98%
c i 12.02  0 70 17 5442  2 90544 26262 2.1 33 16 3 10 29% 307515 56895 98%
c 
c  seconds  reductions   conflicts        size   tier2         variables
c         MB     restarts      redundant     glue    trail          remaining
c          level       rate         size/glue  tier1   irredundant
c 
c W 12.34  0 69 17 5442  2 91023 26705 2.1 33 16 3 10 29% 307502 56895 98%
c - 12.78  0 70 18 5443  2 94242 22686 2.1 33 16 3 10 29% 307502 56895 98%
c I 14.35  0 65 18 5449  2 105025 33153 2.2 34 16 3 10 28% 307502 56895 98%
c - 14.44  0 65 19 5450  2 105660 24189 2.2 34 16 3 10 28% 307502 56895 98%
c ] 15.26  0 64 19 5451  2 111995 30338 2.2 36 16 3 10 28% 307502 56895 98%
c { 15.26  0 138 19 5451 16 111995 30338 1.8 11 6 2 3 26% 307502 56895 98%
c - 16.04  0 132 20 5968 15 117753 26145 1.8 11 6 2 3 26% 307502 56895 98%
c W 16.50  0 130 20 6179 15 120031 28246 1.8 11 6 2 3 26% 307502 56895 98%
c - 18.03  0 123 21 7059 14 130515 29785 1.9 11 6 2 3 26% 307502 56895 98%
c # 18.85  0 119 21 7704 14 136034 34866 1.9 12 6 2 3 26% 307502 56895 98%
c } 19.38  0 117 21 8051 14 139248 37822 1.9 12 6 1 2 26% 307502 56895 98%
c [ 19.38  0 64 21 8051  2 139248 37822 2.2 36 16 3 10 28% 307502 56895 98%
c - 19.99  0 67 22 8051  2 143952 24589 2.2 36 16 3 10 29% 307502 56895 98%
c B 21.23  0 69 22 8052  2 153037 33433 2.1 39 18 3 10 29% 307502 56895 98%
c - 21.98  0 68 23 8052  2 158065 22557 2.1 40 19 3 10 29% 307502 56895 98%
c ] 23.52  0 64 23 8058  2 168147 32378 2.1 40 19 3 10 28% 307502 56895 98%
c { 23.52  0 117 23 8058 14 168147 32378 1.9 12 6 1 2 26% 307502 56895 98%
c B 23.94  0 116 23 8275 14 171038 35067 1.9 12 6 1 2 26% 307502 56895 98%
c i 24.00  0 116 23 8323 14 171528 35501 1.9 12 6 1 2 26% 307502 56894 98%
c - 24.22  0 115 24 8414 14 172853 22034 1.9 12 6 1 2 26% 307496 56894 98%
c 
c  seconds   reductions   conflicts         size  tier2        variables
c         MB      restarts       redundant     glue  trail          remaining
c           level       rate          size/glue tier1  irredundant
c 
c - 26.52  0 110 25 9943 13 188316 24415 1.9 12 6 1 2 26% 307496 56894 98%
c W 27.13  0 109 25 10098 13 190042 26022 1.9 12 6 1 2 26% 307496 56894 98%
c } 29.12  0 106 25 11462 13 202739 37750 1.9 12 6 1 2 26% 307496 56894 98%
c [ 29.12  0 64 25 11462  2 202739 37750 2.1 40 19 3 10 28% 307496 56894 98%
c - 29.33  0 64 26 11462  2 204456 26790 2.1 40 19 3 10 28% 307496 56894 98%
c W 30.10  0 63 26 11464  2 210043 32226 2.1 40 19 3 10 28% 307496 56894 98%
c - 31.70  0 60 27 11470  2 221276 27621 2.1 40 18 3 10 28% 307496 56894 98%
c O 32.98  0 59 27 11472  2 231044 37107 2.2 40 18 3 10 28% 307496 56894 98%
c - 33.86  0 58 28 11478  2 238771 27292 2.2 39 18 3 10 28% 307496 56894 98%
c ] 34.42  0 57 28 11479  2 243173 31570 2.2 39 18 3 10 27% 307496 56894 98%
c { 34.42  0 106 28 11479 13 243173 31570 1.9 12 6 1 2 26% 307496 56894 98%
c F 35.90  0 104 28 12373 13 253046 40671 1.9 12 6 1 2 26% 307496 56894 98%
c - 36.50  0 103 29 12721 13 256948 29677 1.9 12 6 1 2 26% 307496 56894 98%
c - 39.78  0 100 30 14903 13 275801 32446 1.9 13 7 1 2 26% 307496 56894 98%
c B 39.83  0 100 30 14921 13 276048 32654 1.9 13 7 1 2 26% 307496 56894 98%
c i 39.95  0 100 30 14988 13 276877 33406 1.9 13 7 1 2 26% 307496 56893 98%
c } 41.16  0 98 30 15797 12 285064 41022 1.9 13 7 1 2 26% 307496 56893 98%
c [ 41.16  0 57 30 15797  2 285064 41022 2.2 39 18 3 10 27% 307496 56893 98%
c - 42.45  0 58 31 15803  2 295334 34475 2.2 38 17 3 10 27% 307486 56893 98%
c B 43.10  0 57 31 15804  2 300049 39085 2.2 38 17 3 10 27% 307486 56893 98%
c 
c  seconds  reductions    conflicts         size   tier2         variables
c         MB      restarts       redundant     glue    trail          remaining
c          level        rate          size/glue  tier1   irredundant
c 
c - 45.60  0 54 32 15805  2 315548 34207 2.1 39 19 3 10 26% 307486 56893 98%
c W 47.77  0 53 32 15806  2 325053 43530 2.1 40 19 3 10 25% 307486 56893 98%
c ] 48.28  0 52 32 15806  2 328377 46779 2.1 40 19 3 10 25% 307486 56893 98%
c { 48.28  0 98 32 15806 12 328377 46779 1.9 13 7 1 2 26% 307486 56893 98%
c - 49.58  0 97 33 16632 12 336441 34479 1.9 13 7 1 2 26% 307486 56893 98%
c W 52.04  0 95 33 18024 12 351059 48067 2.0 13 7 1 2 26% 307486 56893 98%
c - 53.42  0 94 34 18805 12 358015 37789 2.0 13 7 1 2 26% 307486 56893 98%
c # 56.85  0 93 34 20799 12 378065 56418 2.0 13 7 1 2 26% 307486 56893 98%
c } 57.04  0 93 34 20893 12 379237 57511 2.0 13 7 1 2 26% 307486 56893 98%
c [ 57.04  0 52 34 20893  2 379237 57511 2.1 40 19 3 10 25% 307486 56893 98%
c - 57.24  0 53 35 20893  2 380269 40966 2.1 40 19 3 10 25% 307486 56893 98%
c - 61.77  0 55 36 20893  2 403205 41496 2.1 42 20 2 8 25% 307486 56893 98%
c I 62.27  0 56 36 20893  2 406066 44281 2.1 42 20 2 8 25% 307486 56893 98%
c ] 65.17  0 54 36 20904  2 424063 61905 2.1 43 20 2 8 25% 307486 56893 98%
c { 65.17  0 93 36 20904 12 424063 61905 2.0 13 7 1 2 26% 307486 56893 98%
c - 65.71  0 93 37 21196 12 426823 40449 2.0 13 7 1 2 26% 307486 56893 98%
c B 67.11  0 92 37 22083 12 435067 48091 2.0 13 7 1 2 26% 307486 56893 98%
c - 69.94  0 92 38 23628 12 451122 43660 2.0 13 7 1 2 27% 307486 56893 98%
c W 72.81  0 91 38 24890 11 465070 56684 2.0 14 7 1 2 27% 307486 56893 98%
c - 74.81  0 90 39 26060 11 476104 47070 2.0 14 7 1 2 27% 307486 56893 98%
c 
c  seconds  reductions    conflicts         size  tier2        variables
c         MB      restarts       redundant     glue  trail          remaining
c          level        rate          size/glue tier1  irredundant
c 
c } 76.30  0 90 39 26758 11 484773 55172 2.0 14 7 1 2 27% 307486 56893 98%
c [ 76.30  0 54 39 26758  2 484773 55172 2.1 43 20 2 8 25% 307486 56893 98%
c B 77.98  0 54 39 26762  2 496071 66148 2.1 42 20 2 8 25% 307486 56893 98%
c - 78.89  0 55 40 26763  2 501769 49146 2.1 42 20 2 8 25% 307486 56893 98%
c W 84.75  0 50 40 26777  2 528074 74892 2.0 40 20 2 8 24% 307486 56893 98%
c - 84.79  0 50 41 26777  2 528115 48757 2.0 40 20 2 8 24% 307486 56893 98%
c ] 87.29  0 51 41 26778  2 541546 61849 2.0 41 21 2 8 24% 307486 56893 98%
c { 87.29  0 90 41 26778 11 541546 61849 2.0 14 7 1 2 27% 307486 56893 98%
c - 89.94  0 90 42 28085 11 555148 49534 2.0 14 7 1 2 27% 307486 56893 98%
c F 91.03  0 89 42 28631 11 561075 55056 2.0 14 7 1 2 27% 307486 56893 98%
c i 91.33  0 90 42 28737 11 562747 56599 2.0 14 7 1 2 27% 307486 56890 98%
c - 95.28  0 89 43 30528 11 582861 53151 2.0 14 7 1 2 27% 307473 56890 98%
c B 97.84  0 89 43 31778 11 595076 64539 2.0 14 7 1 2 27% 307473 56890 98%
c - 101.46  0 88 44 33413 11 611260 56555 2.0 14 7 1 2 27% 307473 56890 98%
c } 101.56  0 88 44 33465 11 611709 56981 2.0 14 7 1 2 27% 307473 56890 98%
c [ 101.56  0 51 44 33465  2 611709 56981 2.0 41 21 2 8 24% 307473 56890 98%
c O 104.42  0 51 44 33472  2 630077 74879 2.0 40 20 2 8 24% 307473 56890 98%
c - 106.40  0 49 45 33477  2 640340 58143 2.1 40 19 2 8 23% 307473 56890 98%
c B 110.99  0 48 45 33487  2 666080 83323 2.2 41 18 2 7 23% 307473 56890 98%
c - 111.75  0 47 46 33490  2 670103 57403 2.2 41 18 2 7 23% 307473 56890 98%
c 
c  seconds   reductions    conflicts         size   tier2        variables
c          MB      restarts       redundant     glue   trail          remaining
c           level        rate          size/glue  tier1  irredundant
c 
c ] 114.38  0 47 46 33495  2 685055 72015 2.2 40 18 2 7 23% 307473 56890 98%
c { 114.38  0 88 46 33495 11 685055 72015 2.0 14 7 1 2 27% 307473 56890 98%
c - 117.40  0 88 47 34852 11 700549 59489 2.0 14 7 1 2 27% 307473 56890 98%
c W 118.83  0 88 47 35054 11 703081 61839 2.0 14 7 1 2 28% 307473 56890 98%
c - 124.77  0 87 48 37617 10 731679 63309 2.0 15 7 1 2 28% 307473 56890 98%
c # 126.57  0 87 48 38332 10 741083 72132 2.0 15 7 1 2 28% 307473 56890 98%
c - 131.27  0 86 49 40093 10 763494 67427 2.0 15 7 1 2 28% 307473 56890 98%
c } 132.48  0 86 49 40581 10 770410 73936 2.1 15 7 1 2 28% 307473 56890 98%
c [ 132.48  0 47 49 40581  2 770410 73936 2.2 40 18 2 7 23% 307473 56890 98%
c W 134.25  0 47 49 40582  2 780084 83346 2.2 40 18 2 7 23% 307473 56890 98%
c - 137.44  0 53 50 40583  2 795996 69142 2.2 41 19 2 7 24% 307473 56890 98%
c I 141.75  0 56 50 40583  2 820085 92735 2.2 42 19 2 7 24% 307473 56890 98%
c - 143.16  0 56 51 40584  2 829183 68165 2.2 42 19 2 7 25% 307473 56890 98%
c B 147.84  0 51 51 40584  2 861088 99352 2.4 43 18 2 7 24% 307473 56890 98%
c - 148.21  0 52 52 40584  2 863053 67881 2.4 43 18 2 7 24% 307473 56890 98%
c ] 148.58  0 52 52 40584  2 865331 70085 2.4 43 18 2 7 24% 307473 56890 98%
c { 148.58  0 86 52 40584 10 865331 70085 2.1 15 7 1 2 28% 307473 56890 98%
c i 149.32  0 86 52 40914 10 869989 74356 2.1 15 7 1 2 28% 307473 56889 98%
c - 154.31  0 85 53 43194 10 897608 71249 2.1 15 7 1 2 28% 307467 56889 98%
c B 155.31  0 85 53 43690 10 903090 76376 2.1 15 7 1 2 28% 307467 56889 98%
c 
c  seconds   reductions    conflicts         size  tier2        variables
c          MB      restarts       redundant     glue  trail          remaining
c           level        rate          size/glue tier1  irredundant
c 
c - 161.13  0 85 54 46284 10 932847 75750 2.1 15 7 1 2 28% 307467 56889 98%
c W 164.41  0 85 54 47254  9 946092 88102 2.1 15 7 1 2 28% 307467 56889 98%
c i 167.56  0 85 54 48621  9 960877 101972 2.1 15 7 1 2 28% 307467 56888 98%
c } 167.97  0 85 54 48763  9 963005 103970 2.1 15 7 1 2 28% 307467 56888 98%
c [ 167.97  0 52 54 48763  2 963005 103970 2.4 43 18 2 7 24% 307467 56888 98%
c - 169.00  0 53 55 48763  2 968772 79120 2.3 43 18 2 7 24% 307461 56888 98%
c W 172.94  0 52 55 48764  2 990094 99906 2.3 43 19 2 7 25% 307461 56888 98%
c - 176.37  0 50 56 48773  2 1005382 79718 2.3 43 19 2 7 25% 307461 56888 98%
c ] 179.88  0 49 56 48778  2 1021995 95995 2.3 43 19 2 7 25% 307461 56888 98%
c ? 179.88  0 49 56 48778  2 1021995 95995 2.3 43 19 2 7 25% 307461 56888 98%
c 
c --- [ result ] -------------------------------------------------------------
c 
c writing result to '/private/tmp/p97-ordinal-sharesSecondAtSource.sol'
c 
c --- [ run-time profiling ] -------------------------------------------------
c 
c process time taken by individual solving procedures
c (percentage relative to process time for solving)
c 
c       179.83  100.00% search
c        92.46   51.42% unstable
c        82.21   45.72% stable
c         5.15    2.86% walk
c         0.06    0.03% parse
c         0.00    0.00% lucky
c         0.00    0.00% simplify
c   =================================
c       179.83   99.97% solve
c 
c last line shows process time for solving
c (percentage relative to total process time)
c 
c --- [ statistics ] ---------------------------------------------------------
c 
c chronological:            443362        43.38 %  of conflicts
c conflicts:               1021995      5683.15    per second
c decisions:               6471746     35988.31    per second
c fixed:                      1254         2.16 %  of all variables
c learned:                  969746        94.89 %  per conflict
c learned_lits:           35734694       100.00 %  learned literals
c minimized:                     0         0.00 %  learned literals
c shrunken:                4280539        11.98 %  learned literals
c minishrunken:            4516094        12.64 %  learned literals
c otfs:                      16695         1.63 %  of conflict
c propagations:         2178707674        12.12 M  per second
c reduced:                  873411        85.46 %  per conflict
c rephased:                     44     23227.16    interval
c restarts:                  48778        20.95    interval
c stabilizing:                  14        49.13 %  of conflicts
c subsumed:                    444         0.03 %  of all clauses
c strengthened:              16473         1.28 %  of all clauses
c ticks:               10865869495         4.99    propagation
c walked:                       14     72999.64    interval
c 
c seconds are measured in process time for solving
c 
c --- [ glue usage ] ---------------------------------------------------------
c 
c focused glue 1 used 978432 clauses 62.18% accumulated 62.18% tier1
c focused glue 2 used 279377 clauses 17.75% accumulated 79.94% tier2
c 
c stable glue 2 used 513659 clauses 12.25% accumulated 55.51% tier1
c stable glue 3 used 242903 clauses 5.793% accumulated 61.30%
c stable glue 4-6 used 556506 clauses 13.27% accumulated 74.57%
c stable glue 7 used 124680 clauses 2.973% accumulated 77.55%
c stable glue 8 used 102645 clauses 2.448% accumulated 79.99% tier2
c 
c 
c --- [ resources ] ----------------------------------------------------------
c 
c total process time since initialization:       179.88    seconds
c total real time since initialization:          180.01    seconds
c maximum resident set size of process:       356048.00    MB
c 
c --- [ shutting down ] ------------------------------------------------------
c 
c exit 0
